db/data/169333300270512142316032490331483678.z3.out
unsat
-------------------
33.755068166
